36 67 39 40 79 85 49 71 53 68 55 28 100 25 77 60 
47 73 88 93 
62 87 44 9 76 29 31 35 7 5 18 17 86 
34 78 22 6 54 24 84 3 95 4 51 52 26 83 32 
65 30 33 41 74 61 70 66 72 59 82 
64 89 42 58 57 46 
63 69 23 92 38 99 98 14 48 91 96 20 81 21 12 80 
45 19 15 94 37 11 1 27 8 50 90 16 2 75 56 10 13 43 97 

